1614321
5 19 15574
19 49 8895
49 23 4353
23 60 7498
60 29 6419
29 6 14521
6 11 47990
11 66 13370
66 26 57991
26 55 61621
55 34 20835
34 46 36286
46 43 69394
43 7 52950
7 38 28523
38 67 15200
67 64 14572
64 41 28668
41 30 5056
30 25 1249
25 42 20310
42 24 14670
24 61 5437
61 3 12947
3 21 17216
21 31 77515
31 22 39447
22 52 46274
52 33 101509
33 57 88918
57 18 27906
18 10 28652
10 14 62052
14 44 62420
44 28 76431
28 50 10810
50 53 48925
53 37 6554
37 62 30446
62 39 8740
39 51 11004
51 35 8926
35 68 19070
68 8 34471
8 15 6874
15 36 14151
36 59 8563
59 16 10880
16 63 14689
63 4 25841
4 20 4440
20 48 9225
48 2 7938
2 9 17744
9 58 1777
58 17 6718
17 27 1445
27 45 8214
45 65 16726
65 13 18316
13 47 9114
47 54 18520
54 1 18207
1 12 10465
12 32 4813
32 56 1427
56 40 3489
40 5 3130
